c File: flat50_3_0.col
c
c SOURCE: Joseph Culberson (joe@cs.ualberta.ca)
c DESCRIPTION: Quasi-random coloring problem
c              generated with flatness = 0
c                             probability = 0.139
c                             known coloring = 3
c                             random seed = 1820
c              Creation Date:  Tue Jun  9 12:18:44 1998
c Maximum degree = 8 Minimum degree = 1
c p edge 50 115
c cnf created by edge2cnf
p cnf 150 545
-1 -2 0
-1 -3 0
-2 -3 0
1 2 3 0
-4 -5 0
-4 -6 0
-5 -6 0
4 5 6 0
-7 -8 0
-7 -9 0
-8 -9 0
7 8 9 0
-10 -11 0
-10 -12 0
-11 -12 0
10 11 12 0
-13 -14 0
-13 -15 0
-14 -15 0
13 14 15 0
-16 -17 0
-16 -18 0
-17 -18 0
16 17 18 0
-19 -20 0
-19 -21 0
-20 -21 0
19 20 21 0
-22 -23 0
-22 -24 0
-23 -24 0
22 23 24 0
-25 -26 0
-25 -27 0
-26 -27 0
25 26 27 0
-28 -29 0
-28 -30 0
-29 -30 0
28 29 30 0
-31 -32 0
-31 -33 0
-32 -33 0
31 32 33 0
-34 -35 0
-34 -36 0
-35 -36 0
34 35 36 0
-37 -38 0
-37 -39 0
-38 -39 0
37 38 39 0
-40 -41 0
-40 -42 0
-41 -42 0
40 41 42 0
-43 -44 0
-43 -45 0
-44 -45 0
43 44 45 0
-46 -47 0
-46 -48 0
-47 -48 0
46 47 48 0
-49 -50 0
-49 -51 0
-50 -51 0
49 50 51 0
-52 -53 0
-52 -54 0
-53 -54 0
52 53 54 0
-55 -56 0
-55 -57 0
-56 -57 0
55 56 57 0
-58 -59 0
-58 -60 0
-59 -60 0
58 59 60 0
-61 -62 0
-61 -63 0
-62 -63 0
61 62 63 0
-64 -65 0
-64 -66 0
-65 -66 0
64 65 66 0
-67 -68 0
-67 -69 0
-68 -69 0
67 68 69 0
-70 -71 0
-70 -72 0
-71 -72 0
70 71 72 0
-73 -74 0
-73 -75 0
-74 -75 0
73 74 75 0
-76 -77 0
-76 -78 0
-77 -78 0
76 77 78 0
-79 -80 0
-79 -81 0
-80 -81 0
79 80 81 0
-82 -83 0
-82 -84 0
-83 -84 0
82 83 84 0
-85 -86 0
-85 -87 0
-86 -87 0
85 86 87 0
-88 -89 0
-88 -90 0
-89 -90 0
88 89 90 0
-91 -92 0
-91 -93 0
-92 -93 0
91 92 93 0
-94 -95 0
-94 -96 0
-95 -96 0
94 95 96 0
-97 -98 0
-97 -99 0
-98 -99 0
97 98 99 0
-100 -101 0
-100 -102 0
-101 -102 0
100 101 102 0
-103 -104 0
-103 -105 0
-104 -105 0
103 104 105 0
-106 -107 0
-106 -108 0
-107 -108 0
106 107 108 0
-109 -110 0
-109 -111 0
-110 -111 0
109 110 111 0
-112 -113 0
-112 -114 0
-113 -114 0
112 113 114 0
-115 -116 0
-115 -117 0
-116 -117 0
115 116 117 0
-118 -119 0
-118 -120 0
-119 -120 0
118 119 120 0
-121 -122 0
-121 -123 0
-122 -123 0
121 122 123 0
-124 -125 0
-124 -126 0
-125 -126 0
124 125 126 0
-127 -128 0
-127 -129 0
-128 -129 0
127 128 129 0
-130 -131 0
-130 -132 0
-131 -132 0
130 131 132 0
-133 -134 0
-133 -135 0
-134 -135 0
133 134 135 0
-136 -137 0
-136 -138 0
-137 -138 0
136 137 138 0
-139 -140 0
-139 -141 0
-140 -141 0
139 140 141 0
-142 -143 0
-142 -144 0
-143 -144 0
142 143 144 0
-145 -146 0
-145 -147 0
-146 -147 0
145 146 147 0
-148 -149 0
-148 -150 0
-149 -150 0
148 149 150 0
-52 -1 0
-53 -2 0
-54 -3 0
-79 -1 0
-80 -2 0
-81 -3 0
-85 -1 0
-86 -2 0
-87 -3 0
-100 -1 0
-101 -2 0
-102 -3 0
-109 -1 0
-110 -2 0
-111 -3 0
-115 -1 0
-116 -2 0
-117 -3 0
-148 -1 0
-149 -2 0
-150 -3 0
-52 -4 0
-53 -5 0
-54 -6 0
-55 -4 0
-56 -5 0
-57 -6 0
-124 -4 0
-125 -5 0
-126 -6 0
-79 -7 0
-80 -8 0
-81 -9 0
-91 -7 0
-92 -8 0
-93 -9 0
-97 -7 0
-98 -8 0
-99 -9 0
-145 -7 0
-146 -8 0
-147 -9 0
-55 -10 0
-56 -11 0
-57 -12 0
-76 -10 0
-77 -11 0
-78 -12 0
-79 -10 0
-80 -11 0
-81 -12 0
-112 -10 0
-113 -11 0
-114 -12 0
-127 -10 0
-128 -11 0
-129 -12 0
-142 -10 0
-143 -11 0
-144 -12 0
-61 -13 0
-62 -14 0
-63 -15 0
-64 -13 0
-65 -14 0
-66 -15 0
-67 -13 0
-68 -14 0
-69 -15 0
-85 -13 0
-86 -14 0
-87 -15 0
-139 -13 0
-140 -14 0
-141 -15 0
-55 -16 0
-56 -17 0
-57 -18 0
-73 -16 0
-74 -17 0
-75 -18 0
-106 -16 0
-107 -17 0
-108 -18 0
-115 -16 0
-116 -17 0
-117 -18 0
-58 -19 0
-59 -20 0
-60 -21 0
-76 -19 0
-77 -20 0
-78 -21 0
-88 -19 0
-89 -20 0
-90 -21 0
-121 -19 0
-122 -20 0
-123 -21 0
-130 -19 0
-131 -20 0
-132 -21 0
-67 -22 0
-68 -23 0
-69 -24 0
-76 -22 0
-77 -23 0
-78 -24 0
-82 -22 0
-83 -23 0
-84 -24 0
-109 -22 0
-110 -23 0
-111 -24 0
-118 -22 0
-119 -23 0
-120 -24 0
-121 -22 0
-122 -23 0
-123 -24 0
-112 -25 0
-113 -26 0
-114 -27 0
-124 -25 0
-125 -26 0
-126 -27 0
-136 -25 0
-137 -26 0
-138 -27 0
-55 -28 0
-56 -29 0
-57 -30 0
-70 -28 0
-71 -29 0
-72 -30 0
-94 -28 0
-95 -29 0
-96 -30 0
-112 -28 0
-113 -29 0
-114 -30 0
-133 -28 0
-134 -29 0
-135 -30 0
-136 -28 0
-137 -29 0
-138 -30 0
-139 -28 0
-140 -29 0
-141 -30 0
-61 -31 0
-62 -32 0
-63 -33 0
-115 -31 0
-116 -32 0
-117 -33 0
-121 -31 0
-122 -32 0
-123 -33 0
-124 -31 0
-125 -32 0
-126 -33 0
-58 -34 0
-59 -35 0
-60 -36 0
-82 -34 0
-83 -35 0
-84 -36 0
-103 -34 0
-104 -35 0
-105 -36 0
-91 -37 0
-92 -38 0
-93 -39 0
-118 -37 0
-119 -38 0
-120 -39 0
-121 -37 0
-122 -38 0
-123 -39 0
-130 -37 0
-131 -38 0
-132 -39 0
-142 -37 0
-143 -38 0
-144 -39 0
-127 -40 0
-128 -41 0
-129 -42 0
-82 -43 0
-83 -44 0
-84 -45 0
-85 -43 0
-86 -44 0
-87 -45 0
-139 -43 0
-140 -44 0
-141 -45 0
-52 -46 0
-53 -47 0
-54 -48 0
-58 -46 0
-59 -47 0
-60 -48 0
-91 -46 0
-92 -47 0
-93 -48 0
-106 -46 0
-107 -47 0
-108 -48 0
-124 -46 0
-125 -47 0
-126 -48 0
-127 -46 0
-128 -47 0
-129 -48 0
-58 -49 0
-59 -50 0
-60 -51 0
-64 -49 0
-65 -50 0
-66 -51 0
-79 -49 0
-80 -50 0
-81 -51 0
-82 -49 0
-83 -50 0
-84 -51 0
-139 -49 0
-140 -50 0
-141 -51 0
-115 -55 0
-116 -56 0
-117 -57 0
-142 -55 0
-143 -56 0
-144 -57 0
-145 -55 0
-146 -56 0
-147 -57 0
-124 -58 0
-125 -59 0
-126 -60 0
-133 -58 0
-134 -59 0
-135 -60 0
-121 -61 0
-122 -62 0
-123 -63 0
-124 -61 0
-125 -62 0
-126 -63 0
-130 -61 0
-131 -62 0
-132 -63 0
-145 -61 0
-146 -62 0
-147 -63 0
-127 -64 0
-128 -65 0
-129 -66 0
-130 -64 0
-131 -65 0
-132 -66 0
-106 -67 0
-107 -68 0
-108 -69 0
-118 -70 0
-119 -71 0
-120 -72 0
-133 -70 0
-134 -71 0
-135 -72 0
-136 -70 0
-137 -71 0
-138 -72 0
-139 -70 0
-140 -71 0
-141 -72 0
-106 -73 0
-107 -74 0
-108 -75 0
-130 -73 0
-131 -74 0
-132 -75 0
-139 -73 0
-140 -74 0
-141 -75 0
-103 -79 0
-104 -80 0
-105 -81 0
-106 -79 0
-107 -80 0
-108 -81 0
-112 -79 0
-113 -80 0
-114 -81 0
-115 -79 0
-116 -80 0
-117 -81 0
-106 -82 0
-107 -83 0
-108 -84 0
-118 -82 0
-119 -83 0
-120 -84 0
-112 -85 0
-113 -86 0
-114 -87 0
-115 -88 0
-116 -89 0
-117 -90 0
-118 -88 0
-119 -89 0
-120 -90 0
-136 -88 0
-137 -89 0
-138 -90 0
-112 -91 0
-113 -92 0
-114 -93 0
-118 -91 0
-119 -92 0
-120 -93 0
-103 -94 0
-104 -95 0
-105 -96 0
-130 -97 0
-131 -98 0
-132 -99 0
-145 -97 0
-146 -98 0
-147 -99 0
-115 -100 0
-116 -101 0
-117 -102 0
-139 -100 0
-140 -101 0
-141 -102 0
-145 -100 0
-146 -101 0
-147 -102 0
-148 -100 0
-149 -101 0
-150 -102 0
